objective value:                                   22
m[14,0,7]                                           1 	(obj:11)
m[19,0,8]                                           1 	(obj:11)
r[7,2,9]                               19.01421056226 	(obj:0)
r[7,0,10]                            3.02852270067704 	(obj:0)
r[7,1,10]                            12.7568585063457 	(obj:0)
r[7,2,10]                            18.0481994202125 	(obj:0)
r[8,0,0]                                           50 	(obj:0)
r[8,1,0]                                           32 	(obj:0)
r[8,2,0]                                           30 	(obj:0)
r[8,0,1]                                         47.1 	(obj:0)
r[8,1,1]                                      30.4992 	(obj:0)
r[8,2,1]                                       29.391 	(obj:0)
r[8,0,2]                             44.3457985063474 	(obj:0)
r[8,1,2]                                  29.06878752 	(obj:0)
r[8,2,2]                             28.7943095054582 	(obj:0)
r[8,0,3]                             37.3802919798294 	(obj:0)
r[8,1,3]                             26.4442701659739 	(obj:0)
r[8,2,3]                             27.1472985395679 	(obj:0)
r[8,0,4]                             27.9519031632865 	(obj:0)
r[8,1,4]                             22.4353129218433 	(obj:0)
r[8,2,4]                             24.8429816258747 	(obj:0)
r[8,0,5]                             19.9391002308275 	(obj:0)
r[8,1,5]                             19.1552324420029 	(obj:0)
r[8,2,5]                             22.8120989095184 	(obj:0)
r[8,0,6]                             13.1222525409507 	(obj:0)
r[8,1,6]                             16.4495181306168 	(obj:0)
r[8,2,6]                             21.0128783717125 	(obj:0)
r[8,0,7]                              7.3204378489546 	(obj:0)
r[8,1,7]                             14.2008857836765 	(obj:0)
r[8,2,7]                             19.4112967247366 	(obj:0)
r[8,0,8]                             3.71762766319436 	(obj:0)
r[8,1,8]                             12.8621245005342 	(obj:0)
r[8,2,8]                             18.3052473511695 	(obj:0)
r[8,0,9]                             1.80430227831228 	(obj:0)
r[8,1,9]                             12.0426512733094 	(obj:0)
r[8,2,9]                             17.5880908575984 	(obj:0)
r[8,0,10]                           0.787303728873702 	(obj:0)
r[8,1,10]                            11.4190381985293 	(obj:0)
r[8,2,10]                            17.0802682030352 	(obj:0)
r[9,0,0]                                           50 	(obj:0)
r[9,1,0]                                           32 	(obj:0)
r[9,2,0]                                           30 	(obj:0)
r[9,0,1]                                         47.1 	(obj:0)
r[9,1,1]                                      30.4992 	(obj:0)
r[9,2,1]                                       29.391 	(obj:0)
r[9,0,2]                                   44.3460163 	(obj:0)
r[9,1,2]                                  29.06878752 	(obj:0)
r[9,2,2]                                   28.7943627 	(obj:0)
r[9,0,3]                               41.73062037013 	(obj:0)
r[9,1,3]                              27.705461385312 	(obj:0)
r[9,2,3]                               28.20983713719 	(obj:0)
r[9,0,4]                             37.9156295222963 	(obj:0)
r[9,1,4]                             26.2095754247093 	(obj:0)
r[9,2,4]                             27.3120569435746 	(obj:0)
r[9,0,5]                             32.7716248541445 	(obj:0)
r[9,1,5]                              24.327722419425 	(obj:0)
r[9,2,5]                             26.0592565526502 	(obj:0)
r[9,0,6]                             29.6971034837904 	(obj:0)
r[9,1,6]                              23.049254385284 	(obj:0)
r[9,2,6]                             25.2712679875909 	(obj:0)
r[9,0,7]                             21.4483714831984 	(obj:0)
r[9,1,7]                             19.6593904953498 	(obj:0)
r[9,2,7]                             23.1965732666542 	(obj:0)
r[9,0,8]                             15.8280019890533 	(obj:0)
r[9,1,8]                             17.5465267307129 	(obj:0)
r[9,2,8]                             21.7013394868026 	(obj:0)
r[9,0,9]                             9.61604761429911 	(obj:0)
r[9,1,9]                             15.1145111467306 	(obj:0)
r[9,2,9]                             20.0199778359256 	(obj:0)
r[9,0,10]                            4.93724711622992 	(obj:0)
r[9,1,10]                            13.3553712231872 	(obj:0)
r[9,2,10]                            18.6679907181559 	(obj:0)
r[10,0,0]                                          25 	(obj:0)
r[10,0,1]                                       22.81 	(obj:0)
r[10,0,2]                                   20.811844 	(obj:0)
r[10,0,3]                               18.9887264656 	(obj:0)
r[10,0,4]                            17.3253140272134 	(obj:0)
r[10,0,5]                            15.8076165184295 	(obj:0)
r[10,0,6]                            14.4228693114151 	(obj:0)
r[10,0,7]                            13.1594259597351 	(obj:0)
r[10,0,8]                            12.0066602456623 	(obj:0)
r[10,0,9]                            10.9548768081423 	(obj:0)
r[10,0,10]                           4.34571874569528 	(obj:0)
r[11,0,0]                                          25 	(obj:0)
r[11,0,1]                                       22.81 	(obj:0)
r[11,0,2]                                   12.686734 	(obj:0)
r[11,0,3]                            5.03273370673337 	(obj:0)
r[11,0,4]                            1.99644830284061 	(obj:0)
r[11,0,5]                           0.791976301186465 	(obj:0)
r[11,0,6]                           0.314171151213161 	(obj:0)
r[11,0,7]                           0.286649758366888 	(obj:0)
r[11,0,8]                           0.261539239533948 	(obj:0)
r[11,0,9]                           0.238628402150774 	(obj:0)
r[11,0,10]                         0.0946621252473749 	(obj:0)
r[12,0,0]                                          25 	(obj:0)
r[12,0,1]                                    15.88861 	(obj:0)
r[12,0,2]                                14.496767764 	(obj:0)
r[12,0,3]                            5.75076073673245 	(obj:0)
r[12,0,4]                            2.28128432416982 	(obj:0)
r[12,0,5]                           0.904968647793192 	(obj:0)
r[12,0,6]                           0.358994380845828 	(obj:0)
r[12,0,7]                           0.142410420287103 	(obj:0)
r[12,0,8]                          0.0564931622566509 	(obj:0)
r[12,0,9]                          0.0515443612429683 	(obj:0)
r[12,0,10]                         0.0204472675331198 	(obj:0)
r[13,0,0]                                          25 	(obj:0)
r[13,0,1]                                    14.68489 	(obj:0)
r[13,0,2]                            5.82538743877438 	(obj:0)
r[13,0,3]                            2.31088818587203 	(obj:0)
r[13,0,4]                           0.916712281153693 	(obj:0)
r[13,0,5]                            0.36365299349215 	(obj:0)
r[13,0,6]                           0.144258457527559 	(obj:0)
r[13,0,7]                           0.131621416648145 	(obj:0)
r[13,0,8]                           0.120091380549767 	(obj:0)
r[13,0,9]                           0.109571375613607 	(obj:0)
r[13,0,10]                         0.0434661556980501 	(obj:0)
r[14,0,0]                                          25 	(obj:0)
r[14,0,1]                                    14.68489 	(obj:0)
r[14,0,2]                            5.82538743877438 	(obj:0)
r[14,0,3]                            2.31088818587203 	(obj:0)
r[14,0,4]                           0.916712281153692 	(obj:0)
r[14,0,5]                           0.363652993492149 	(obj:0)
r[14,0,6]                           0.144258457527559 	(obj:0)
r[14,0,7]                                          25 	(obj:0)
r[14,0,8]                            17.2679436766872 	(obj:0)
r[14,0,9]                            15.7552718106094 	(obj:0)
r[14,0,10]                                       6.25 	(obj:0)
r[15,0,0]                                          25 	(obj:0)
r[15,0,1]                                       22.81 	(obj:0)
r[15,0,2]                                   12.686734 	(obj:0)
r[15,0,3]                            5.03273370673337 	(obj:0)
r[15,0,4]                            1.99644830284061 	(obj:0)
r[15,0,5]                           0.791976301186465 	(obj:0)
r[15,0,6]                           0.314171151213161 	(obj:0)
r[15,0,7]                           0.286649758366888 	(obj:0)
r[15,0,8]                           0.261539239533948 	(obj:0)
r[15,0,9]                           0.238628402150774 	(obj:0)
r[15,0,10]                         0.0946621252473749 	(obj:0)
r[16,0,0]                                          25 	(obj:0)
r[16,0,1]                                    14.68489 	(obj:0)
r[16,0,2]                            12.0436300213295 	(obj:0)
r[16,0,3]                            4.77761910668031 	(obj:0)
r[16,0,4]                            1.89524622460938 	(obj:0)
r[16,0,5]                           0.751830183966242 	(obj:0)
r[16,0,6]                           0.298245482926217 	(obj:0)
r[16,0,7]                           0.118311781015015 	(obj:0)
r[16,0,8]                             0.1079476689981 	(obj:0)
r[16,0,9]                          0.0984914531938662 	(obj:0)
r[16,0,10]                         0.0390708322814936 	(obj:0)
r[17,0,0]                                          25 	(obj:0)
r[17,0,1]                                    14.68489 	(obj:0)
r[17,0,2]                            5.82538743877438 	(obj:0)
r[17,0,3]                            2.31088818587203 	(obj:0)
r[17,0,4]                           0.916712281153693 	(obj:0)
r[17,0,5]                           0.363652993492149 	(obj:0)
r[17,0,6]                           0.144258457527559 	(obj:0)
r[17,0,7]                          0.0572262649851655 	(obj:0)
r[17,0,8]                          0.0227012367959554 	(obj:0)
r[17,0,9]                          0.0207126084526297 	(obj:0)
r[17,0,10]                        0.00821653884395464 	(obj:0)
r[18,0,0]                                          25 	(obj:0)
r[18,0,1]                                    14.68489 	(obj:0)
r[18,0,2]                                13.398493636 	(obj:0)
r[18,0,3]                            5.31508349913774 	(obj:0)
r[18,0,4]                            2.10845438078964 	(obj:0)
r[18,0,5]                           0.836408285324629 	(obj:0)
r[18,0,6]                           0.331796991262237 	(obj:0)
r[18,0,7]                           0.131621416648142 	(obj:0)
r[18,0,8]                          0.0522132441724641 	(obj:0)
r[18,0,9]                          0.0476393639829563 	(obj:0)
r[18,0,10]                          0.018898183952179 	(obj:0)
r[19,0,0]                                          25 	(obj:0)
r[19,0,1]                                       22.81 	(obj:0)
r[19,0,2]                                   12.686734 	(obj:0)
r[19,0,3]                            5.03273370673337 	(obj:0)
r[19,0,4]                            1.99644830284061 	(obj:0)
r[19,0,5]                           0.791976301186465 	(obj:0)
r[19,0,6]                           0.314171151213161 	(obj:0)
r[19,0,7]                           0.124629376039074 	(obj:0)
r[19,0,8]                                          25 	(obj:0)
r[19,0,9]                            15.7552718106094 	(obj:0)
r[19,0,10]                                       6.25 	(obj:0)
y[0,3]                              0.504911015736848 	(obj:0)
y[0,4]                               1.36956355316251 	(obj:0)
y[0,5]                               1.53743062092436 	(obj:0)
y[0,6]                               1.34286724649709 	(obj:0)
y[0,7]                                1.1787129239501 	(obj:0)
y[0,8]                              0.871872614836207 	(obj:0)
y[0,9]                               0.43217676434993 	(obj:0)
y[0,10]                             0.198574991647134 	(obj:0)
y[1,4]                              0.727975612745636 	(obj:0)
y[1,5]                              0.524818571694666 	(obj:0)
y[1,6]                              0.807038459997851 	(obj:0)
y[1,7]                               1.08317063276722 	(obj:0)
y[1,8]                               1.13311283926546 	(obj:0)
y[1,9]                              0.841758741471901 	(obj:0)
y[1,10]                             0.849008854353084 	(obj:0)
y[2,4]                              0.402902187947205 	(obj:0)
y[2,5]                              0.575144797270911 	(obj:0)
y[2,6]                               1.01482256292696 	(obj:0)
y[2,7]                              0.545026732477983 	(obj:0)
y[2,8]                               1.34456612382091 	(obj:0)
y[2,9]                              0.959107259231722 	(obj:0)
y[2,10]                             0.930049115514471 	(obj:0)
y[3,4]                              0.675008352450584 	(obj:0)
y[3,5]                              0.729203593189543 	(obj:0)
y[3,6]                               1.21786630467909 	(obj:0)
y[3,7]                               1.37369917176578 	(obj:0)
y[3,8]                               1.20480180888186 	(obj:0)
y[3,9]                              0.944146365088295 	(obj:0)
y[3,10]                             0.470685840820253 	(obj:0)
y[4,4]                            0.00112839044868451 	(obj:0)
y[4,5]                               1.29995908110774 	(obj:0)
y[4,6]                               1.50086810684488 	(obj:0)
y[4,7]                               1.31210424539422 	(obj:0)
y[4,8]                                1.1526528275946 	(obj:0)
y[4,9]                              0.904194526590482 	(obj:0)
y[4,10]                             0.448605396300247 	(obj:0)
y[5,4]                              0.689335961117089 	(obj:0)
y[5,5]                              0.535151187779397 	(obj:0)
y[5,6]                              0.964072707279205 	(obj:0)
y[5,7]                              0.529493163295103 	(obj:0)
y[5,8]                              0.948067960254354 	(obj:0)
y[5,9]                                1.2178349257168 	(obj:0)
y[5,10]                             0.925703891136932 	(obj:0)
y[6,4]                              0.983114082044553 	(obj:0)
y[6,5]                                1.3931717349332 	(obj:0)
y[6,6]                              0.830658311037996 	(obj:0)
y[6,7]                              0.326819444082011 	(obj:0)
y[6,8]                              0.194604186684417 	(obj:0)
y[6,9]                              0.910863737982963 	(obj:0)
y[6,10]                              1.09007236238904 	(obj:0)
y[7,4]                              0.378194799324881 	(obj:0)
y[7,5]                               1.35380118540831 	(obj:0)
y[7,6]                              0.877671750931512 	(obj:0)
y[7,7]                              0.950947071478685 	(obj:0)
y[7,8]                               1.24777348335404 	(obj:0)
y[7,9]                               1.09805926942405 	(obj:0)
y[7,10]                             0.552402540603492 	(obj:0)
y[8,2]                           5.06614683913909e-05 	(obj:0)
y[8,3]                               1.01189188850426 	(obj:0)
y[8,4]                               1.66973976508574 	(obj:0)
y[8,5]                               1.45387637081052 	(obj:0)
y[8,6]                                1.2725094570882 	(obj:0)
y[8,7]                               1.11906687240966 	(obj:0)
y[8,8]                              0.678095285766652 	(obj:0)
y[8,9]                              0.329104735564161 	(obj:0)
y[8,10]                             0.143604200146563 	(obj:0)
y[9,4]                               0.30963857117186 	(obj:0)
y[9,5]                              0.665110128542694 	(obj:0)
y[9,6]                              0.246653006705256 	(obj:0)
y[9,7]                               1.48732188646536 	(obj:0)
y[9,8]                              0.975565088131886 	(obj:0)
y[9,9]                               1.18173758028088 	(obj:0)
y[9,10]                             0.900553874000338 	(obj:0)
y[10,10]                             1.31414534869825 	(obj:0)
y[11,2]                                          1.89 	(obj:0)
y[11,3]                              1.52189867291617 	(obj:0)
y[11,4]                                0.603725966779 	(obj:0)
y[11,5]                             0.239493633478787 	(obj:0)
y[11,6]                            0.0950053561268598 	(obj:0)
y[11,10]                           0.0286258266748062 	(obj:0)
y[12,1]                                          1.61 	(obj:0)
y[12,3]                              1.73903004678789 	(obj:0)
y[12,4]                             0.689860379628953 	(obj:0)
y[12,5]                             0.273662519092661 	(obj:0)
y[12,6]                             0.108559900767779 	(obj:0)
y[12,7]                            0.0430649110948199 	(obj:0)
y[12,8]                            0.0170835322664112 	(obj:0)
y[12,10]                          0.00618325370201544 	(obj:0)
y[13,1]                                          1.89 	(obj:0)
y[13,2]                              1.76159716148537 	(obj:0)
y[13,3]                             0.698812587407702 	(obj:0)
y[13,4]                             0.277213793820877 	(obj:0)
y[13,5]                             0.109968665232026 	(obj:0)
y[13,6]                            0.0436237575563337 	(obj:0)
y[13,10]                           0.0131441654830903 	(obj:0)
y[14,1]                                          1.89 	(obj:0)
y[14,2]                              1.76159716148537 	(obj:0)
y[14,3]                             0.698812587407702 	(obj:0)
y[14,4]                             0.277213793820877 	(obj:0)
y[14,5]                             0.109968665232026 	(obj:0)
y[14,6]                            0.0436237575563337 	(obj:0)
y[14,8]                              1.28915011009835 	(obj:0)
y[14,10]                                         1.89 	(obj:0)
y[15,2]                                          1.89 	(obj:0)
y[15,3]                              1.52189867291617 	(obj:0)
y[15,4]                                0.603725966779 	(obj:0)
y[15,5]                             0.239493633478787 	(obj:0)
y[15,6]                            0.0950053561268597 	(obj:0)
y[15,10]                           0.0286258266748062 	(obj:0)
y[16,1]                                          1.89 	(obj:0)
y[16,2]                             0.315157854075491 	(obj:0)
y[16,3]                              1.44475201786013 	(obj:0)
y[16,4]                             0.573122458321875 	(obj:0)
y[16,5]                             0.227353447631392 	(obj:0)
y[16,6]                            0.0901894340368881 	(obj:0)
y[16,7]                            0.0357774825789406 	(obj:0)
y[16,10]                           0.0118150196819237 	(obj:0)
y[17,1]                                          1.89 	(obj:0)
y[17,2]                              1.76159716148537 	(obj:0)
y[17,3]                             0.698812587407702 	(obj:0)
y[17,4]                             0.277213793820877 	(obj:0)
y[17,5]                             0.109968665232026 	(obj:0)
y[17,6]                            0.0436237575563337 	(obj:0)
y[17,7]                            0.0173052225315141 	(obj:0)
y[17,8]                           0.00686485400709691 	(obj:0)
y[17,10]                          0.00248468134641188 	(obj:0)
y[18,1]                                          1.89 	(obj:0)
y[18,3]                              1.60728125013925 	(obj:0)
y[18,4]                             0.637596604750787 	(obj:0)
y[18,5]                             0.252929865482168 	(obj:0)
y[18,6]                               0.1003354101577 	(obj:0)
y[18,7]                            0.0398023163943994 	(obj:0)
y[18,8]                            0.0157892850377531 	(obj:0)
y[18,10]                          0.00571481082713893 	(obj:0)
y[19,2]                                          1.89 	(obj:0)
y[19,3]                              1.52189867291617 	(obj:0)
y[19,4]                                0.603725966779 	(obj:0)
y[19,5]                             0.239493633478787 	(obj:0)
y[19,6]                            0.0950053561268597 	(obj:0)
y[19,7]                            0.0376879233142159 	(obj:0)
y[19,9]                              1.64101609429882 	(obj:0)
y[19,10]                                         1.89 	(obj:0)
r[0,0,0]                                           50 	(obj:0)
r[0,1,0]                                           32 	(obj:0)
r[0,2,0]                                           30 	(obj:0)
r[0,0,1]                                         47.1 	(obj:0)
r[0,1,1]                                      30.4992 	(obj:0)
r[0,2,1]                                       29.391 	(obj:0)
r[0,0,2]                                   44.3460163 	(obj:0)
r[0,1,2]                                  29.06878752 	(obj:0)
r[0,2,2]                                   28.7943627 	(obj:0)
r[0,0,3]                             39.5600079134773 	(obj:0)
r[0,1,3]                             27.2820456767334 	(obj:0)
r[0,2,3]                             27.6796805706663 	(obj:0)
r[0,0,4]                             31.3080364771092 	(obj:0)
r[0,1,4]                               23.97411270096 	(obj:0)
r[0,2,4]                             25.6797413242611 	(obj:0)
r[0,0,5]                             22.7641234754441 	(obj:0)
r[0,1,5]                             20.4175809290115 	(obj:0)
r[0,2,5]                             23.5441404234081 	(obj:0)
r[0,0,6]                             15.4996153892843 	(obj:0)
r[0,1,6]                             17.4933222025631 	(obj:0)
r[0,2,6]                             21.6561837639909 	(obj:0)
r[0,0,7]                             9.31892400545098 	(obj:0)
r[0,1,7]                             15.0702632631593 	(obj:0)
r[0,2,7]                             19.9789146634343 	(obj:0)
r[0,0,8]                             4.78000337081254 	(obj:0)
r[0,1,8]                             13.3652356913108 	(obj:0)
r[0,2,8]                             18.6578764501886 	(obj:0)
r[0,0,9]                             2.36939015542725 	(obj:0)
r[0,1,9]                             12.4067345423776 	(obj:0)
r[0,2,9]                             17.8253359556823 	(obj:0)
r[0,0,10]                            1.08867868227596 	(obj:0)
r[0,1,10]                            11.7270310096524 	(obj:0)
r[0,2,10]                            17.2549778945525 	(obj:0)
r[1,0,0]                                           50 	(obj:0)
r[1,1,0]                                           32 	(obj:0)
r[1,2,0]                                           30 	(obj:0)
r[1,0,1]                                         47.1 	(obj:0)
r[1,1,1]                                      30.4992 	(obj:0)
r[1,2,1]                                       29.391 	(obj:0)
r[1,0,2]                                   44.3460163 	(obj:0)
r[1,1,2]                                  29.06878752 	(obj:0)
r[1,2,2]                                   28.7943627 	(obj:0)
r[1,0,3]                               41.73062037013 	(obj:0)
r[1,1,3]                              27.705461385312 	(obj:0)
r[1,2,3]                               28.20983713719 	(obj:0)
r[1,0,4]                             36.1171985805706 	(obj:0)
r[1,1,4]                             25.6540300805989 	(obj:0)
r[1,2,4]                             26.8728030499221 	(obj:0)
r[1,0,5]                              31.672404655311 	(obj:0)
r[1,1,5]                             24.0009368582093 	(obj:0)
r[1,2,5]                             25.7762256477293 	(obj:0)
r[1,0,6]                             26.2477106937076 	(obj:0)
r[1,1,6]                             21.9911054248651 	(obj:0)
r[1,2,6]                             24.4055778840827 	(obj:0)
r[1,0,7]                             19.9208489502676 	(obj:0)
r[1,1,7]                             19.5562804384241 	(obj:0)
r[1,2,7]                             22.7728154886302 	(obj:0)
r[1,0,8]                             13.7102538853803 	(obj:0)
r[1,1,8]                             17.1327286121041 	(obj:0)
r[1,2,8]                             21.1207588529823 	(obj:0)
r[1,0,9]                             9.07658147523819 	(obj:0)
r[1,1,9]                             15.3845663898428 	(obj:0)
r[1,2,9]                             19.8081607697212 	(obj:0)
r[1,0,10]                            4.65465380676033 	(obj:0)
r[1,1,10]                            13.7055880291437 	(obj:0)
r[1,2,10]                            18.5145958090252 	(obj:0)
r[2,0,0]                                           50 	(obj:0)
r[2,1,0]                                           32 	(obj:0)
r[2,2,0]                                           30 	(obj:0)
r[2,0,1]                                         47.1 	(obj:0)
r[2,1,1]                                      30.4992 	(obj:0)
r[2,2,1]                                       29.391 	(obj:0)
r[2,0,2]                                   44.3460163 	(obj:0)
r[2,1,2]                                  29.06878752 	(obj:0)
r[2,2,2]                                   28.7943627 	(obj:0)
r[2,0,3]                               41.73062037013 	(obj:0)
r[2,1,3]                              27.705461385312 	(obj:0)
r[2,2,3]                               28.20983713719 	(obj:0)
r[2,0,4]                             37.5146892337791 	(obj:0)
r[2,1,4]                             26.1089883832792 	(obj:0)
r[2,2,4]                             27.2141301459605 	(obj:0)
r[2,0,5]                             32.7792132592926 	(obj:0)
r[2,1,5]                             24.3649949786527 	(obj:0)
r[2,2,5]                              26.057781266863 	(obj:0)
r[2,0,6]                             26.4024417742588 	(obj:0)
r[2,1,6]                             21.9553458225867 	(obj:0)
r[2,2,6]                             24.4632446160724 	(obj:0)
r[2,0,7]                             22.3795576838691 	(obj:0)
r[2,1,7]                             20.4482251269596 	(obj:0)
r[2,2,7]                             23.3943626812642 	(obj:0)
r[2,0,8]                             15.1305038995564 	(obj:0)
r[2,1,8]                             17.5186207715756 	(obj:0)
r[2,2,8]                             21.5076626888226 	(obj:0)
r[2,0,9]                             9.91567967922484 	(obj:0)
r[2,1,9]                             15.5375474974806 	(obj:0)
r[2,2,9]                             20.0639945140462 	(obj:0)
r[2,0,10]                            5.09895348418022 	(obj:0)
r[2,1,10]                            13.7040588833423 	(obj:0)
r[2,2,10]                            18.6801438541209 	(obj:0)
r[3,0,0]                                           50 	(obj:0)
r[3,1,0]                                           32 	(obj:0)
r[3,2,0]                                           30 	(obj:0)
r[3,0,1]                                         47.1 	(obj:0)
r[3,1,1]                                      30.4992 	(obj:0)
r[3,2,1]                                       29.391 	(obj:0)
r[3,0,2]                                   44.3460163 	(obj:0)
r[3,1,2]                                  29.06878752 	(obj:0)
r[3,2,2]                                   28.7943627 	(obj:0)
r[3,0,3]                               41.73062037013 	(obj:0)
r[3,1,3]                              27.705461385312 	(obj:0)
r[3,2,3]                               28.20983713719 	(obj:0)
r[3,0,4]                              36.344904832579 	(obj:0)
r[3,1,4]                             25.7381384202902 	(obj:0)
r[3,2,4]                             26.9284186732319 	(obj:0)
r[3,0,5]                             31.0094959636925 	(obj:0)
r[3,1,5]                             23.7769824538853 	(obj:0)
r[3,2,5]                             25.6161080013163 	(obj:0)
r[3,0,6]                             23.8537914758794 	(obj:0)
r[3,1,6]                              20.974854607362 	(obj:0)
r[3,2,6]                             23.8173413889765 	(obj:0)
r[3,0,7]                             16.4017734005224 	(obj:0)
r[3,1,7]                             17.9531042860275 	(obj:0)
r[3,2,7]                             21.8914652284262 	(obj:0)
r[3,0,8]                             10.0633968896368 	(obj:0)
r[3,1,8]                             15.4524407709091 	(obj:0)
r[3,2,8]                             20.1820265849632 	(obj:0)
r[3,0,9]                             5.17624103666828 	(obj:0)
r[3,1,9]                             13.5965396245894 	(obj:0)
r[3,2,9]                             18.7809777619458 	(obj:0)
r[3,0,10]                            2.58051447818121 	(obj:0)
r[3,1,10]                            12.5796271783168 	(obj:0)
r[3,2,10]                             17.905503780517 	(obj:0)
r[4,0,0]                                           50 	(obj:0)
r[4,1,0]                                           32 	(obj:0)
r[4,2,0]                                           30 	(obj:0)
r[4,0,1]                                         47.1 	(obj:0)
r[4,1,1]                                      30.4992 	(obj:0)
r[4,2,1]                                       29.391 	(obj:0)
r[4,0,2]                                   44.3460163 	(obj:0)
r[4,1,2]                                  29.06878752 	(obj:0)
r[4,2,2]                                   28.7943627 	(obj:0)
r[4,0,3]                               41.73062037013 	(obj:0)
r[4,1,3]                              27.705461385312 	(obj:0)
r[4,2,3]                               28.20983713719 	(obj:0)
r[4,0,4]                             39.2419147892252 	(obj:0)
r[4,1,4]                             26.4060464176791 	(obj:0)
r[4,2,4]                             27.6359926333339 	(obj:0)
r[4,0,5]                             31.2946740153793 	(obj:0)
r[4,1,5]                             23.2986855003724 	(obj:0)
r[4,2,5]                             25.7100249477141 	(obj:0)
r[4,0,6]                             22.8987346262135 	(obj:0)
r[4,1,6]                              19.864023299226 	(obj:0)
r[4,2,6]                             23.6121999290884 	(obj:0)
r[4,0,7]                              15.750486961335 	(obj:0)
r[4,1,7]                             17.0359966040964 	(obj:0)
r[4,2,7]                              21.755162812864 	(obj:0)
r[4,0,8]                             9.66051753655276 	(obj:0)
r[4,1,8]                             14.6896632394029 	(obj:0)
r[4,2,8]                             20.1032475387885 	(obj:0)
r[4,0,9]                             4.95720683437764 	(obj:0)
r[4,1,9]                             12.9437747316259 	(obj:0)
r[4,2,9]                             18.7457473608311 	(obj:0)
r[4,0,10]                            2.45945940954083 	(obj:0)
r[4,1,10]                            11.9850316279716 	(obj:0)
r[4,2,10]                             17.894173023291 	(obj:0)
r[5,0,0]                                           50 	(obj:0)
r[5,1,0]                                           32 	(obj:0)
r[5,2,0]                                           30 	(obj:0)
r[5,0,1]                                         47.1 	(obj:0)
r[5,1,1]                                      30.4992 	(obj:0)
r[5,2,1]                                       26.997 	(obj:0)
r[5,0,2]                                   44.3460163 	(obj:0)
r[5,1,2]                                  29.06878752 	(obj:0)
r[5,2,2]                                   26.4489609 	(obj:0)
r[5,0,3]                               41.73062037013 	(obj:0)
r[5,1,3]                              27.705461385312 	(obj:0)
r[5,2,3]                               25.91204699373 	(obj:0)
r[5,0,4]                             36.2833104429217 	(obj:0)
r[5,1,4]                             25.7157449484811 	(obj:0)
r[5,2,4]                             24.6622296805843 	(obj:0)
r[5,0,5]                             31.7853743359884 	(obj:0)
r[5,1,5]                             24.0457719916012 	(obj:0)
r[5,2,5]                             23.5996776709001 	(obj:0)
r[5,0,6]                             25.6797006231586 	(obj:0)
r[5,1,6]                             21.7491376307291 	(obj:0)
r[5,2,6]                             22.1083278715377 	(obj:0)
r[5,0,7]                              21.762466318614 	(obj:0)
r[5,1,7]                             20.2728760744722 	(obj:0)
r[5,2,7]                             21.1035609942856 	(obj:0)
r[5,0,8]                             16.2511575604767 	(obj:0)
r[5,1,8]                             18.1835116780936 	(obj:0)
r[5,2,8]                             19.6796873478345 	(obj:0)
r[5,0,9]                             9.86889310830433 	(obj:0)
r[5,1,9]                             15.6437853419277 	(obj:0)
r[5,2,9]                             18.0014630226709 	(obj:0)
r[5,0,10]                            5.07513098211037 	(obj:0)
r[5,1,10]                            13.8134073012613 	(obj:0)
r[5,2,10]                            16.6640442376169 	(obj:0)
r[6,0,0]                                           50 	(obj:0)
r[6,1,0]                                           32 	(obj:0)
r[6,2,0]                                           30 	(obj:0)
r[6,0,1]                                         47.1 	(obj:0)
r[6,1,1]                                      30.4992 	(obj:0)
r[6,2,1]                                       29.391 	(obj:0)
r[6,0,2]                                   44.3460163 	(obj:0)
r[6,1,2]                                  29.06878752 	(obj:0)
r[6,2,2]                                   28.7943627 	(obj:0)
r[6,0,3]                               41.73062037013 	(obj:0)
r[6,1,3]                              27.705461385312 	(obj:0)
r[6,2,3]                               28.20983713719 	(obj:0)
r[6,0,4]                             35.0203583010546 	(obj:0)
r[6,1,4]                             25.2007377217086 	(obj:0)
r[6,2,4]                             26.6049076571583 	(obj:0)
r[6,0,5]                             26.8994306355646 	(obj:0)
r[6,1,5]                             21.9352547405281 	(obj:0)
r[6,2,5]                             24.6019977100381 	(obj:0)
r[6,0,6]                             21.6194940636829 	(obj:0)
r[6,1,6]                             19.9813382588638 	(obj:0)
r[6,2,6]                             23.2303859299344 	(obj:0)
r[6,0,7]                             18.7829157740196 	(obj:0)
r[6,1,7]                             18.8303269660798 	(obj:0)
r[6,2,7]                             22.4156486792706 	(obj:0)
r[6,0,8]                             16.6622390310375 	(obj:0)
r[6,1,8]                             17.8524109591993 	(obj:0)
r[6,2,8]                             21.7562766150628 	(obj:0)
r[6,0,9]                             11.5709069071392 	(obj:0)
r[6,1,9]                             15.9459244645721 	(obj:0)
r[6,2,9]                             20.3582172748949 	(obj:0)
r[6,0,10]                             5.9762739166066 	(obj:0)
r[6,1,10]                            13.7805527392844 	(obj:0)
r[6,2,10]                            18.8003694837061 	(obj:0)
r[7,0,0]                                           50 	(obj:0)
r[7,1,0]                                           32 	(obj:0)
r[7,2,0]                                           30 	(obj:0)
r[7,0,1]                                         47.1 	(obj:0)
r[7,1,1]                                      30.4992 	(obj:0)
r[7,2,1]                                       29.391 	(obj:0)
r[7,0,2]                                   44.3460163 	(obj:0)
r[7,1,2]                                  29.06878752 	(obj:0)
r[7,2,2]                                   28.7943627 	(obj:0)
r[7,0,3]                               41.73062037013 	(obj:0)
r[7,1,3]                              27.705461385312 	(obj:0)
r[7,2,3]                               28.20983713719 	(obj:0)
r[7,0,4]                             37.6209062974664 	(obj:0)
r[7,1,4]                              26.137086532981 	(obj:0)
r[7,2,4]                             27.2400729040139 	(obj:0)
r[7,0,5]                             29.5322412464587 	(obj:0)
r[7,1,5]                             22.9193833724021 	(obj:0)
r[7,2,5]                             25.2656081793837 	(obj:0)
r[7,0,6]                             23.9120375323828 	(obj:0)
r[7,1,6]                             20.8357879755632 	(obj:0)
r[7,2,6]                             23.8311609948641 	(obj:0)
r[7,0,7]                             18.2719968862316 	(obj:0)
r[7,1,7]                             18.7145895849485 	(obj:0)
r[7,2,7]                             22.3488940016158 	(obj:0)
r[7,0,8]                             11.6516678891936 	(obj:0)
r[7,1,8]                             16.0843928461169 	(obj:0)
r[7,2,8]                             20.5850492958612 	(obj:0)
r[7,0,9]                             6.02006178412309 	(obj:0)
r[7,1,9]                             13.8961875408035 	(obj:0)
machine_maintenance[14]                            11 	(obj:0)
machine_maintenance[19]                            11 	(obj:0)
